c description: Random 3-CNF over 15 variables and 30 clauses
c generator: CNFgen (0.9.0)
c copyright: (C) 2012-2020 Massimo Lauria <massimo.lauria@uniroma1.it>
c url: https://massimolauria.net/cnfgen
c
p cnf 15 30
2 11 -14 0
-8 11 12 0
2 10 -12 0
2 5 -12 0
5 8 9 0
9 14 15 0
-2 -9 -13 0
-2 -5 -15 0
-2 -7 -10 0
7 8 10 0
-1 -5 -14 0
3 -4 -10 0
-1 -4 10 0
-5 8 -12 0
3 6 -13 0
-9 10 -14 0
-6 9 14 0
-1 -3 -12 0
8 12 -13 0
-2 -4 -8 0
-4 12 -14 0
5 13 14 0
-1 3 -7 0
1 3 11 0
7 9 10 0
-5 7 9 0
-7 -11 12 0
1 3 -14 0
-3 -10 -15 0
-5 10 -12 0